Version,
    23.2;

SimulationControl,
    Yes,
    Yes,
    No,
    Yes,
    Yes;

Building,
    HVAC Sandbox Building,
    0.0,
    Suburbs,
    0.04,
    0.4,
    FullExterior,
    25,
    1;

Site:Location,
    Chicago_IL_USA,
    41.78,
    -87.75,
    -6.0,
    190.0;

Timestep,
    4;

RunPeriod,
    Annual Simulation,
    1,
    1,
    ,
    12,
    31,
    ,
    Monday,
    Yes,
    Yes,
    No,
    Yes,
    Yes;

GlobalGeometryRules,
    UpperLeftCorner,
    CounterClockwise,
    World;

ScheduleTypeLimits,
    Fraction,
    0.0,
    1.0,
    CONTINUOUS;

ScheduleTypeLimits,
    Temperature,
    -60.0,
    100.0,
    CONTINUOUS;

ScheduleTypeLimits,
    ActivityLevel,
    0.0,
    1000.0,
    CONTINUOUS;

ScheduleTypeLimits,
    Control Type,
    0.0,
    4.0,
    DISCRETE;

Schedule:Constant,
    Always On,
    Fraction,
    1.0;

Schedule:Constant,
    Occupancy Schedule,
    Fraction,
    1.0;

Schedule:Constant,
    Lighting Schedule,
    Fraction,
    1.0;

Schedule:Constant,
    Equipment Schedule,
    Fraction,
    1.0;

Schedule:Constant,
    Activity Schedule,
    ActivityLevel,
    120.0;

Material,
    Exterior Wall Material,
    MediumSmooth,
    0.200,
    0.500,
    800.0,
    900.0,
    0.90,
    0.70,
    0.70;

Material,
    Floor Material,
    MediumSmooth,
    0.150,
    0.500,
    800.0,
    900.0,
    0.90,
    0.70,
    0.70;

Material,
    Roof Material,
    MediumSmooth,
    0.200,
    0.500,
    800.0,
    900.0,
    0.90,
    0.70,
    0.70;

Construction,
    Exterior Wall Construction,
    Exterior Wall Material;

Construction,
    Floor Construction,
    Floor Material;

Construction,
    Roof Construction,
    Roof Material;

Site:GroundTemperature:BuildingSurface,
    18.0,
    18.0,
    18.0,
    18.0,
    18.0,
    18.0,
    18.0,
    18.0,
    18.0,
    18.0,
    18.0,
    18.0;

SizingPeriod:DesignDay,
    Chicago Summer Design Day,
    7,
    21,
    SummerDesignDay,
    31.0,
    10.0,
    DefaultMultipliers,
    ,
    WetBulb,
    21.0,
    ,
    ,
    ,
    ,
    99000.0,
    3.0,
    180.0,
    No,
    No,
    No,
    ASHRAEClearSky,
    ,
    ,
    ,
    ,
    1.0;

SizingPeriod:DesignDay,
    Chicago Winter Design Day,
    1,
    15,
    WinterDesignDay,
    -17.0,
    0.0,
    DefaultMultipliers,
    ,
    WetBulb,
    -17.0,
    ,
    ,
    ,
    ,
    99000.0,
    4.5,
    0.0,
    No,
    No,
    No,
    ASHRAEClearSky,
    ,
    ,
    ,
    ,
    0.0;

Sizing:Parameters,
    1.15,
    1.15,
    4;

Zone,
    Room 1,
    0.0,
    0.0,
    0.0,
    0.0,
    1,
    1,
    20.000,
    60.000;

Zone,
    Room 2,
    0.0,
    0.0,
    0.0,
    0.0,
    1,
    1,
    20.000,
    60.000;

BuildingSurface:Detailed,
    Room 1 Floor,
    Floor,
    Floor Construction,
    Room 1,
    ,
    Ground,
    ,
    NoSun,
    NoWind,
    1.0,
    4,
    0.000,
    4.472,
    0.000,
    4.472,
    4.472,
    0.000,
    4.472,
    0.000,
    0.000,
    0.000,
    0.000,
    0.000;

BuildingSurface:Detailed,
    Room 1 Roof,
    Roof,
    Roof Construction,
    Room 1,
    ,
    Outdoors,
    ,
    SunExposed,
    WindExposed,
    1.0,
    4,
    0.000,
    0.000,
    3.000,
    4.472,
    0.000,
    3.000,
    4.472,
    4.472,
    3.000,
    0.000,
    4.472,
    3.000;

BuildingSurface:Detailed,
    Room 1 South Wall,
    Wall,
    Exterior Wall Construction,
    Room 1,
    ,
    Outdoors,
    ,
    SunExposed,
    WindExposed,
    0.5,
    4,
    0.000,
    0.000,
    3.000,
    4.472,
    0.000,
    3.000,
    4.472,
    0.000,
    0.000,
    0.000,
    0.000,
    0.000;

BuildingSurface:Detailed,
    Room 1 East Wall,
    Wall,
    Exterior Wall Construction,
    Room 1,
    ,
    Outdoors,
    ,
    SunExposed,
    WindExposed,
    0.5,
    4,
    4.472,
    0.000,
    3.000,
    4.472,
    4.472,
    3.000,
    4.472,
    4.472,
    0.000,
    4.472,
    0.000,
    0.000;

BuildingSurface:Detailed,
    Room 1 North Wall,
    Wall,
    Exterior Wall Construction,
    Room 1,
    ,
    Outdoors,
    ,
    SunExposed,
    WindExposed,
    0.5,
    4,
    4.472,
    4.472,
    3.000,
    0.000,
    4.472,
    3.000,
    0.000,
    4.472,
    0.000,
    4.472,
    4.472,
    0.000;

BuildingSurface:Detailed,
    Room 1 West Wall,
    Wall,
    Exterior Wall Construction,
    Room 1,
    ,
    Outdoors,
    ,
    SunExposed,
    WindExposed,
    0.5,
    4,
    0.000,
    4.472,
    3.000,
    0.000,
    0.000,
    3.000,
    0.000,
    0.000,
    0.000,
    0.000,
    4.472,
    0.000;

BuildingSurface:Detailed,
    Room 2 Floor,
    Floor,
    Floor Construction,
    Room 2,
    ,
    Ground,
    ,
    NoSun,
    NoWind,
    1.0,
    4,
    0.000,
    4.472,
    0.000,
    4.472,
    4.472,
    0.000,
    4.472,
    0.000,
    0.000,
    0.000,
    0.000,
    0.000;

BuildingSurface:Detailed,
    Room 2 Roof,
    Roof,
    Roof Construction,
    Room 2,
    ,
    Outdoors,
    ,
    SunExposed,
    WindExposed,
    1.0,
    4,
    0.000,
    0.000,
    3.000,
    4.472,
    0.000,
    3.000,
    4.472,
    4.472,
    3.000,
    0.000,
    4.472,
    3.000;

BuildingSurface:Detailed,
    Room 2 South Wall,
    Wall,
    Exterior Wall Construction,
    Room 2,
    ,
    Outdoors,
    ,
    SunExposed,
    WindExposed,
    0.5,
    4,
    0.000,
    0.000,
    3.000,
    4.472,
    0.000,
    3.000,
    4.472,
    0.000,
    0.000,
    0.000,
    0.000,
    0.000;

BuildingSurface:Detailed,
    Room 2 East Wall,
    Wall,
    Exterior Wall Construction,
    Room 2,
    ,
    Outdoors,
    ,
    SunExposed,
    WindExposed,
    0.5,
    4,
    4.472,
    0.000,
    3.000,
    4.472,
    4.472,
    3.000,
    4.472,
    4.472,
    0.000,
    4.472,
    0.000,
    0.000;

BuildingSurface:Detailed,
    Room 2 North Wall,
    Wall,
    Exterior Wall Construction,
    Room 2,
    ,
    Outdoors,
    ,
    SunExposed,
    WindExposed,
    0.5,
    4,
    4.472,
    4.472,
    3.000,
    0.000,
    4.472,
    3.000,
    0.000,
    4.472,
    0.000,
    4.472,
    4.472,
    0.000;

BuildingSurface:Detailed,
    Room 2 West Wall,
    Wall,
    Exterior Wall Construction,
    Room 2,
    ,
    Outdoors,
    ,
    SunExposed,
    WindExposed,
    0.5,
    4,
    0.000,
    4.472,
    3.000,
    0.000,
    0.000,
    3.000,
    0.000,
    0.000,
    0.000,
    0.000,
    4.472,
    0.000;

People,
    Room 1 People,
    Room 1,
    Occupancy Schedule,
    People,
    1.000,
    ,
    ,
    0.30,
    ,
    Activity Schedule;

People,
    Room 2 People,
    Room 2,
    Occupancy Schedule,
    People,
    1.000,
    ,
    ,
    0.30,
    ,
    Activity Schedule;

Lights,
    Room 1 Lighting,
    Room 1,
    Lighting Schedule,
    Watts/Area,
    ,
    10.000,
    ,
    0.0,
    0.7,
    0.2,
    0.0,
    General,
    No;

Lights,
    Room 2 Lighting,
    Room 2,
    Lighting Schedule,
    Watts/Area,
    ,
    10.000,
    ,
    0.0,
    0.7,
    0.2,
    0.0,
    General,
    No;

ElectricEquipment,
    Room 1 Equipment,
    Room 1,
    Equipment Schedule,
    Watts/Area,
    ,
    8.000,
    ,
    0.0,
    0.3,
    0.0;

ElectricEquipment,
    Room 2 Equipment,
    Room 2,
    Equipment Schedule,
    Watts/Area,
    ,
    8.000,
    ,
    0.0,
    0.3,
    0.0;

ZoneInfiltration:DesignFlowRate,
    Room 1 Infiltration,
    Room 1,
    Always On,
    AirChanges/Hour,
    ,
    ,
    ,
    0.5,
    1.0,
    0.0,
    0.0;

ZoneInfiltration:DesignFlowRate,
    Room 2 Infiltration,
    Room 2,
    Always On,
    AirChanges/Hour,
    ,
    ,
    ,
    0.5,
    1.0,
    0.0,
    0.0;

ZoneHVAC:EquipmentList,
    Room 1 Equipment List,
    SequentialLoad,
    ZoneHVAC:IdealLoadsAirSystem,
    Room 1 Ideal Loads,
    1,
    1;

ZoneHVAC:IdealLoadsAirSystem,
    Room 1 Ideal Loads,
    ,
    Room 1 Zone Supply Inlet Node,
    ,
    ,
    ,
    ,
    ,
    ,
    ,
    ,
    ,
    ,
    ,
    ,
    ,
    ,
    ,
    ,
    ,
    ,
    ,
    ,
    ,
    ,
    ,
    ,
    ;

ZoneHVAC:EquipmentList,
    Room 2 Equipment List,
    SequentialLoad,
    ZoneHVAC:IdealLoadsAirSystem,
    Room 2 Ideal Loads,
    1,
    1;

ZoneHVAC:IdealLoadsAirSystem,
    Room 2 Ideal Loads,
    ,
    Room 2 Zone Supply Inlet Node,
    ,
    ,
    ,
    ,
    ,
    ,
    ,
    ,
    ,
    ,
    ,
    ,
    ,
    ,
    ,
    ,
    ,
    ,
    ,
    ,
    ,
    ,
    ,
    ,
    ;

ZoneHVAC:EquipmentConnections,
    Room 1,
    Room 1 Equipment List,
    Room 1 Zone Supply Inlet Node,
    ,
    Room 1 Zone Air Node,
    Room 1 Zone Return Node;

ZoneHVAC:EquipmentConnections,
    Room 2,
    Room 2 Equipment List,
    Room 2 Zone Supply Inlet Node,
    ,
    Room 2 Zone Air Node,
    Room 2 Zone Return Node;

Schedule:Constant,
    Thermostat Control Type,
    Control Type,
    4;

Schedule:Constant,
    Heating Setpoint,
    Temperature,
    20.0;

Schedule:Constant,
    Cooling Setpoint,
    Temperature,
    24.0;

ThermostatSetpoint:DualSetpoint,
    Room 1 Dual Setpoint,
    Heating Setpoint,
    Cooling Setpoint;

ZoneControl:Thermostat,
    Room 1 Thermostat,
    Room 1,
    Thermostat Control Type,
    ThermostatSetpoint:DualSetpoint,
    Room 1 Dual Setpoint;

ThermostatSetpoint:DualSetpoint,
    Room 2 Dual Setpoint,
    Heating Setpoint,
    Cooling Setpoint;

ZoneControl:Thermostat,
    Room 2 Thermostat,
    Room 2,
    Thermostat Control Type,
    ThermostatSetpoint:DualSetpoint,
    Room 2 Dual Setpoint;

Sizing:Zone,
    Room 1,
    SupplyAirTemperature,
    13.0,
    ,
    SupplyAirTemperature,
    32.0,
    ,
    0.009,
    0.004,
    ,
    1.0,
    1.0,
    DesignDay,
    ,
    0.000762,
    0.0,
    0.2,
    DesignDay,
    ,
    0.002032,
    0.0,
    0.3,
    ,
    No,
    NeutralSupplyAir,
    ,
    ,
    Sensible Load Only No Latent Load,
    ;

Sizing:Zone,
    Room 2,
    SupplyAirTemperature,
    13.0,
    ,
    SupplyAirTemperature,
    32.0,
    ,
    0.009,
    0.004,
    ,
    1.0,
    1.0,
    DesignDay,
    ,
    0.000762,
    0.0,
    0.2,
    DesignDay,
    ,
    0.002032,
    0.0,
    0.3,
    ,
    No,
    NeutralSupplyAir,
    ,
    ,
    Sensible Load Only No Latent Load,
    ;

Output:SQLite,
    SimpleAndTabular;

OutputControl:Table:Style,
    CommaAndHTML;

Output:Table:SummaryReports,
    AllSummary;
